c Lingeling SAT Solver
c 
c Version ala b02aa1a04343558c4252b5f4a723be021964f652
c 
c Copyright (C) 2010-2012 Armin Biere JKU Linz Austria.
c All rights reserved.
c 
c released Sat Oct 13 14:05:26 CEST 2012
c compiled Sat Feb 16 02:48:12 EST 2013
c 
c gcc (Debian 4.4.5-8) 4.4.5
c -Wall -O3 -DNLGLOG -DNDEBUG -DNCHKSOL -DNLGLPICOSAT 
c Linux greencar2 2.6.32-5-amd64 x86_64
c 
c reading input file p32.cnf
c no embedded options
c found 'p cnf 224760 698636' header
c read 224760 variables, 698636 clauses, 1453468 literals in 0.0 seconds
c
c feature vars 224760
c feature lits.total 1453468
c feature lits.pos 773340
c feature lits.neg 680128
c feature clauses.total 698636
c feature clauses.unit 83554
c feature clauses.bin 491532
c feature clauses.trn 122150
c feature clauses.lrg 1400
c feature cog.val.min 1
c feature cog.val.avg 100194
c feature cog.val.max 216784
c feature cog.var.min 1
c feature cog.var.avg 112381
c feature cog.var.max 224759
c
c
c --abstime=0
c --acts=2
c --actavgmax=120
c --actstdmin=20
c --actstdmax=80
c --agile=23
c --bias=2
c --block=1
c --blkrtc=0
c --blkclslim=2000
c --blkocclim=2000
c --blkmaxeff=2147483647
c --blkmineff=10000000
c --blkreleff=20
c --card=0
c --cce=3
c --ccemaxeff=100000000
c --ccemineff=5000000
c --ccereleff=3
c --check=0
c --cgrclsr=1
c --cgrmaxority=20
c --cgrmaxeff=8000000
c --cgrmineff=200000
c --cgreleff=1
c --cgrexteq=1
c --cgrextand=1
c --cgrextunits=1
c --cgrextite=1
c --cgrextxor=1
c --cliff=1
c --cliffreleff=8
c --cliffmineff=10000000
c --cliffmaxeff=100000000
c --compact=0
c --decompose=1
c --defragint=10000000
c --defragfree=50
c --elim=1
c --elmrtc=0
c --elmblk=1
c --elmclslim=1000
c --elmocclim=1000
c --elmaxeff=100000000
c --elmineff=5000000
c --elmreleff=10
c --sleeponabort=0
c --exitonabort=0
c --flipping=1
c --flipint=2
c --flipdur=50
c --fliptop=1
c --force=0
c --gauss=1
c --gaussextrall=1
c --gaussmaxor=20
c --gaussexptrn=1
c --gaussmaxeff=50000000
c --gaussmineff=2000000
c --gaussreleff=2
c --gluescale=2
c --gluekeep=0
c --inprocessing=1
c --cintinc=10000
c --irrlim=20
c --lift=1
c --lftmaxeff=20000000
c --lftmineff=500000
c --lftreleff=6
c --lhbr=1
c --lkhd=1
c --clim=-1
c --mocint=1000
c --move=2
c --log=-1
c --otfs=1
c --phase=0
c --phaseneginit=0
c --plain=0
c --probe=1
c --prbasicmaxeff=100000000
c --prbasicmineff=1000000
c --prbasicreleff=10
c --prbasic=1
c --prbasicroundlim=9
c --queuemergelim=10000
c --queuefactor=833
c --queueinc=20
c --rmincpen=4
c --seed=0
c --smallirr=90
c --smallve=1
c --smallvevars=12
c --randec=1
c --randecint=1000
c --redfixed=0
c --redlbound=0
c --redlexpfac=10
c --redldoutfac=0
c --redloutinc=10000
c --redlinit=1000
c --redlinc=1000
c --redinoutinc=100
c --redlmininc=10
c --redlmaxinc=200
c --redlminrel=10
c --redlmaxrel=300
c --redlminabs=500
c --redlmaxabs=1000000
c --reduce=1
c --restart=2
c --restartint=5
c --rstinoutinc=110
c --simplify=1
c --simpdelay=100
c --simpen=4
c --sizepen=1000000
c --sizemaxpen=3
c --sortlits=0
c --syncint=111111
c --termint=122222
c --ternres=1
c --ternresrtc=0
c --trnrmineff=4000000
c --trnrmaxeff=40000000
c --trnreleff=10
c --transred=1
c --trdmineff=100000
c --trdmaxeff=2000000
c --trdreleff=10
c --unhide=1
c --unhdextstamp=1
c --unhdhbr=0
c --unhdmaxeff=20000000
c --unhdmineff=1000000
c --unhdreleff=4
c --unhdlnpr=3
c --unhdroundlim=5
c --verbose=1
c --witness=1
c [limits] no conflict limit
c [limits] simplification delayed by 100 to 100 conflicts
c 
c  seconds         irredundant          redundant clauses agility   height
c          variables clauses conflicts large binary ternary    glue         MB
c 
c *    0.0  125150   527020         0       0      0     0  63  0.0   0.0   42
c [cut-width] 176123, max 270442, min4 121328 at 75%, min10 31200 at 85%
c [decision-order] bias 1, old 1
c [queue-schedule-all-variables]
c s    0.0  125150   527020         0       0      0     0  63  0.0   0.0   42
c [simplification-1] limit hit at 100 conflicts
c [simplification-1] simplification penalty of 4
c [ternres-1] limit 4000000 with penalty 0 = 0 + 0
c [ternres-1] all 125150 free variables schedulable
c [ternres-1] 0 ternary resolvents (0 bin, 0 trn)
c [ternres-1] 31074 variables remain 25% (94076 retained)
c [gauss-1] limit 2000000 penalty 0 = 0 + 0
c [gauss-1] extracted 164008 xors of average arity 2.0
c [gauss-1] connected 328017 occurrences of 112413 variables (average 2.9)
c [gauss-1] limit 2000000 penalty 0 = 0 + 0
c d    0.8   58019   264519       100     100      0     0  75  7.4 231.6   21
c [gauss-1] exported 0 unary, 3 binary and 0 ternary equations
c G    0.8   58019   264519       100     100      0     0  75  7.4 231.6   21
c [basicprobe-1] limit 1000000 penalty 0 = 0 + 0
c [basicprobe-1-0] 3808 probes remain 7% after last round
c [basicprobe-1-0] 1 units = 1 failed (100%) + 0 lifted (0%)
c [basicprobe-1-0] removed 1 variables, found 5585 hbrs
c p    0.9   58018   264519       100     100   5585     0  75  7.4 231.6   25
c [cgrclsr-1] limit 200000 penalty 0 = 0 + 0
c [cgrclsr-1] all 58018 free variables schedulable
c [cgrclsr-1] fully completed congruence closure
c [lift-1] limit 500000 with penalty 0 = 0 + 0
c [lift-1] using 58018 probes 100%
c [lift-1] 57990 variables remain 100% (28 retained)
c [cliff-1] limit of 10000000 steps penalty 0 = 0 + 0
c [cliff-1] failed 0, lifted 0
c [unhide-1] limit 1000000 with penalty 0 = 0 + 0
c [unhide-1-1] 0 units, 0 failed, 21500 tauts, 0 hbrs, 73 literals
c u    1.5   58018   242990       100     100  25105     0  75  7.4 231.6   25
c [transred-1] limit 100000 with penalty 0 = 0 + 0
c t    1.5   58018   242988       100     100  25103     0  75  7.4 231.6   25
c [block-1] scheduling all variables this time
c [block-1] scheduled 58018 variables 100%
c [block-1] limit of 10000000 steps penalty 0 = 0 + 0
c [block-1] fully completed blocked clause elimination
c [block-1] transition to [ all 0 rem 0 ] state
c [block-1] eliminated 4200 blocked clauses
c k    1.7   58018   238788       100     100  25104  4199  75  7.4 231.6   21
c [cce-1] scheduling all variables this time
c [cce-1] limit of 10000000 steps penalty 0 = 0 + 0
c [cce-1] incomplete covered clause elimination 52511 not tried 91%
c [cce-1] transition to [ all 1 rem 1 ] state
c [cce-1] eliminated 75 covered clauses
c E    2.1   58017   238713       100     100  32036  4199  75  7.4 231.6   21
c [elim-1] scheduling all variables this time
c [elim-1] scheduled 58017 variables 100%
c [elim-1] limit of 5000000 steps penalty 0 = 0 + 0
c [elim-1] incomplete variable elimination 43661 not tried 75%
c [elim-1] transition to [ all 1 rem 1 ] state
c [elim-1] eliminated 5907 = 10% variables out of 58017
c e    3.0   52110   235094       100      57  11564   553  75  7.4 231.6   21
c [phase-1] phase bias: 990 positive 15%, 5525 negative 85%
c [simplification-1] removed 73040 variables 58%
c [simplification-1] limit increments divided by 30
c [simplification-1] arithmetic increase of conflict limit interval by 333
c [simplification-1] new irredundant limit 2298516
c [simplification-1] new conflict limit 433
c [simplification-1] simplification penalty reduced to 3
c 1    3.1   52110   235094       180     134  11564   556  41 10.9 503.6   26
c 
c  seconds         irredundant          redundant clauses agility   height
c          variables clauses conflicts large binary ternary    glue         MB
c 
c blkd: 1 bces, 4200 removed, 701818 resolutions, 1996012 steps
c blkd: 4200 blocking literals 1%, 0 pure
c cces: 1 cces, 70 eliminated, 70 ate 100%, 0 abce 0%
c cces: 11014 probed, 1 lifted, 1 failed
c clff: 1 cliffs, 0 lifted, 0 failed
c clff: 2898 decisions, 10003532 steps
c clls: 1 sat, 0 simp, 0 freeze, 0 melt
c clls: 2152104 add, 0 assume,, 0 deref, 0 failed
c clls: 0 cassume, 0 mosat
c coll: 7 gcs, 0 rescored clauses
c cgrs: 1 count, 200008 esteps, 45006 csteps
c cgrs: 0 eqs, 0 units
c cgrs: 0 matched (0 ands 0%, 0 xors 0%, 0 ites 0%)
c cgrs: 0 simplified (0 ands 0%, 0 xors 0%, 0 ites 0%)
c cgrs: 1586 extracted (1312 ands 83%, 274 xors 17%, 0 ites 0%)
c dcps: 2 decompositions, 67131 equivalent 30%
c decs: 2106 decision, 1 random 0.047%
c decs: 0 flipped 0.000% (in 0 phases)
c elms: 1 elims, 5907 eliminated 3%
c elms: 5907 small 100%, 0 large 0%
c elms: 14435 tried small, 5907 succeeded 41%, 8528 failed 59%
c elms: 0 subsumed, 0 strengthened, 0 blocked
c elms: 160793 copies, 113545 resolutions, 316557 ipos
c elms: 0 subchks, 0 strchks
c frcs: 0 computed, 40.9 - 59.1 average min-cut range
c gaus: 1 extractions, 164008 extracted, 2.0 size, 3 max
c gaus: exported 0 units, 3 binary and 0 ternary equations
c gaus: 0 gc, 4000080 steps, 2000040 extr 50%, 2266290 elim 57%
c glue: 10.9 avg, 3.5 scaled avg
c glue: 0 maxredglue=15 (0%)
c lift: 1 phases, 168 probed (56 level1 33%, 112 level2 67%)
c lift: 0 units, 0 equivalences, 0 implications
c hbrs: 31971 hbrs = 31971 trn 100% + 0 lrg 0%, 0 sub 0%
c lrnd: 180 clauses, 169 uips 94%, 29.4 length, 10.9 glue
c ints: 18 luby (752 steps), 0 inout (0 steps)
c mins: 5290 learned lits, 1% minimized
c move: moved 4270, 71 binary 2%, 4199 ternary 98%
c otfs: str 0 dyn (0 red, 0 irr) 0 drv 0%, 0 rst 0%
c otfs: sub 0 dyn (0 red, 0 irr)
c phas: 1 computed, 6644 set, 990 pos (15%), 5654 neg (85%)
c prbs: 1 basic, 1015 probed, 1 failed, 0 lifted
c prps: 3937634 props, 150 props/dec
c prps: 8% srch, 92% simp, 0% lkhd
c psns: 77526 searches, 2886 hits, 4% hit rate
c queu: 324 new, 46 del, 72 maximum priority
c queu: 259 merged, 90 collected, 1 gcs
c queu: 180 deprioritized, 15.2 lines on average
c reds: 0 count, 0 reset, 0 acts 0%, 0 exp 0%
c reds: 0 arithmetic 0%, 0 double 0%
c rmbd: 0 removed, 0 red 0%
c rsts: 0 restarts 0%, 17 skipped 100%
c rsts: 0 kept 0.0% average 0.0%
c simp: 1 count (0 ilim 0%, 0 plim 0%, 1 clim 100%)
c trnr: 1 count, 0 bin, 0 trn, 4000001 steps
c tops: 99612 fixed 44%, 0 iterations
c trds: 2 transitive reductions, 4 removed, 0 failed
c trds: 77 nodes, 107 edges, 100603 steps
c unhd: 1 count, 1 rounds, 1275329 steps
c unhd: 4 non-trivial sccs of average size 2.0
c unhd: 0 units, 0 bin, 0 trn, 0 lrg
c unhd: 0 failed, 0 stamp, 0 lits, 0 bin, 0 trn, 0 lrg
c unhd: 21500 tauts, 0 bin 0%, 0 trn 0%, 0 lrg 0%
c unhd: 21500 tauts, 21500 stamp 100%, 0 red 0%
c unhd: 0 hbrs, 0 trn 0%, 0 lrg 0%, 0 red 0%
c unhd: 73 strd, 0 bin 0%, 0 trn 0%, 73 lrg 100%, 73 red 100%
c vars: 52110 remaining 23% and 172650 removed 77% out of 224760
c vars: 99612 fixed 44%, 5907 eliminated 3%, 67131 equivalent 30%
c vsts: 18354883 visits, 6% srch, 94% simp, 0% lkhd
c vsts: 3.5 search visits per propagation 6076.3 per conflict
c wchs: 5949063 pushed, 2821390 enlarged, 12 defrags
c 
c scaledglue  added       reduced       forcing      resolved     conflicts
c 
c all       177 100         0 100       216 100       197 100         2 100
c 
c  0          0   0         0   0<        0   0         0   0         0   0 
c  1          1   1         0   0         6   3         1   1         0   0 
c  2         28  16         0   0        37  17        30  15         0   0 
c  3         47  27         0   0        48  22        48  24         0   0 
c  4         69  39<        0   0        69  32<       71  36<        1  50 
c  5         28  16         0   0        52  24        41  21         1  50<
c  6          4   2         0   0         4   2         6   3         0   0 
c  7          0   0         0   0         0   0         0   0         0   0 
c  8          0   0         0   0         0   0         0   0         0   0 
c  9          0   0         0   0         0   0         0   0         0   0 
c 10          0   0         0   0         0   0         0   0         0   0 
c 11          0   0         0   0         0   0         0   0         0   0 
c 12          0   0         0   0         0   0         0   0         0   0 
c 13          0   0         0   0         0   0         0   0         0   0 
c 14          0   0         0   0         0   0         0   0         0   0 
c 15          0   0         0   0         0   0         0   0         0   0 
c 
c avg             3.6           0.0           3.6           3.7           4.5
c std             1.0           0.0           1.2           1.1           0.5
c 
c 2106 decisions, 180 conflicts, 58.6 conflicts/sec
c 3937634 propagations, 1.3 megaprops/sec
c 3.1 seconds, 49.0 MB
c 
c    0.000   0% analysis
c    0.132   4% block
c    0.000   0% bump
c    0.000   0% card
c    0.384  13% cce
c    0.320  10% cliff
c    0.012   0% cutwidth
c    0.000   0% decide
c    0.000   0% force
c    0.336  11% gc
c    0.132   4% cgrclsr
c    0.220   7% decomp
c    0.092   3% defrag
c    0.924  30% elim
c    0.644  21% gauss
c    0.096   3% lift
c    0.000   0% mincls
c    0.024   1% phase
c    0.056   2% probe
c    0.000   0% reduce
c    0.000   0% restart
c    0.064   2% ternres
c    0.008   0% transred
c    0.092   3% unhide
c ==================================
c    0.020   1% preprocessing     1%
c    3.000  98% inprocessing     99%
c ==================================
c    3.020  98% simplifying
c    0.000   0% lookahead
c    0.044   1% search
c ==================================
c    3.072 100% all
c
s SATISFIABLE
